000 000 000 000 000 000 -99 -99 -99 -99 -99 -99 -99 000 000 000 000 000 -99 000 000 000 000 000 000 000 000 -99 -99 -99 -99
000 000 000 000 000 000 000 -99 -99 -99 -99 -99 -99 000 000 000 000 000 -99 000 000 000 000 000 000 000 -99 -99 -99 -99 -99
000 000 000 000 000 000 000 000 000 -99 -99 -99 -99 -99 000 000 000 000 -99 -99 -99 000 000 001 000 000 000 000 -99 -99 -99
-99 000 000 000 000 000 000 000 000 000 -99 -99 -99 -99 -99 -99 -99 -99 -99 -99 000 -99 000 000 002 000 000 000 -99 -99 -99
000 000 000 000 000 000 000 000 000 000 -99 -99 000 -99 -99 -99 -99 -99 -99 -99 000 000 000 000 006 000 -99 -99 -99 -99 -99
000 000 000 000 000 000 000 000 000 -99 -99 000 000 -99 -99 -99 -99 -99 -99 -99 000 000 000 000 011 002 -99 -99 -99 -99 -99
000 000 000 000 000 000 000 000 000 -99 -99 000 -99 000 -99 000 -99 000 -99 -99 000 000 000 000 002 002 -99 -99 -99 -99 -99
000 000 000 000 000 000 -99 -99 000 000 000 -99 -99 -99 -99 -99 000 000 000 -99 000 000 -99 000 000 003 -99 -99 -99 -99 -99
000 000 000 000 000 000 -99 -99 000 000 000 000 -99 -99 -99 -99 -99 000 000 -99 000 -99 -99 000 000 -99 -99 -99 -99 -99 -99
000 000 000 000 000 000 000 000 000 000 000 000 -99 -99 -99 -99 000 000 000 -99 000 000 -99 -99 000 -99 -99 -99 000 000 -99
000 000 000 000 000 000 000 000 000 000 000 000 -99 -99 -99 000 000 000 000 -99 000 000 -99 -99 -99 -99 -99 -99 000 000 -99
000 000 -99 000 000 000 000 000 000 000 000 000 000 -99 -99 000 -99 000 000 000 000 000 -99 -99 -99 -99 -99 000 000 000 -99
000 000 000 000 000 000 000 000 000 000 000 000 000 -99 -99 000 000 000 000 000 -99 000 -99 000 000 -99 -99 -99 000 000 -99
000 000 000 000 000 000 000 000 -99 -99 000 000 -99 -99 -99 -99 000 000 000 000 000 -99 -99 000 000 000 000 -99 000 000 -99
000 000 000 000 000 000 000 -99 -99 -99 -99 -99 -99 000 -99 -99 000 000 -99 -99 -99 -99 -99 000 000 000 000 -99 000 -99 000
000 -99 000 000 000 000 000 -99 -99 -99 -99 -99 -99 000 -99 -99 000 000 000 -99 -99 000 -99 000 000 000 000 000 -99 -99 000
000 000 000 000 000 000 000 000 -99 -99 -99 -99 -99 000 000 -99 -99 000 000 -99 -99 -99 000 000 000 000 000 000 -99 -99 000
000 000 000 -99 -99 -99 000 000 000 -99 -99 -99 -99 000 000 -99 000 000 000 -99 -99 -99 000 -99 000 000 000 000 -99 000 000
000 000 000 000 -99 -99 -99 000 000 -99 -99 000 -99 -99 -99 000 000 000 000 -99 -99 -99 000 -99 000 000 000 000 -99 000 -99
000 000 000 000 000 000 000 000 000 -99 000 000 -99 -99 -99 -99 000 000 000 -99 -99 000 -99 -99 000 000 000 000 -99 000 -99
000 000 000 000 000 000 -99 000 000 -99 -99 -99 -99 -99 -99 -99 000 000 000 000 000 000 000 -99 -99 -99 -99 -99 -99 -99 -99
000 000 000 000 000 000 000 -99 000 -99 -99 -99 -99 -99 -99 -99 000 000 000 000 000 000 000 -99 -99 -99 -99 -99 -99 -99 -99
000 000 000 000 000 000 000 000 000 000 -99 -99 -99 -99 -99 -99 000 000 000 000 000 000 000 -99 -99 -99 -99 -99 -99 -99 -99
000 000 000 000 000 000 000 000 000 -99 -99 -99 -99 -99 000 000 000 000 000 000 000 000 000 -99 -99 -99 -99 -99 -99 -99 -99
000 000 000 000 000 000 000 000 000 000 000 -99 -99 -99 000 000 000 000 000 000 000 000 000 -99 -99 -99 -99 -99 -99 -99 -99
000 000 000 000 000 000 000 000 000 000 -99 -99 -99 000 000 -99 000 000 000 -99 000 -99 -99 -99 -99 -99 -99 -99 -99 -99 000
000 000 000 000 000 000 000 000 000 000 -99 -99 -99 -99 -99 -99 000 000 -99 -99 000 000 -99 -99 -99 -99 -99 -99 -99 -99 000
000 000 000 000 000 000 000 000 000 000 -99 -99 -99 -99 -99 000 000 000 000 000 -99 000 000 -99 -99 -99 -99 -99 -99 -99 000
000 -99 000 000 000 000 000 000 000 000 -99 -99 -99 000 000 000 000 000 000 000 000 000 -99 -99 -99 -99 -99 -99 -99 -99 000
000 000 000 -99 -99 000 000 000 000 000 -99 -99 -99 -99 000 000 000 000 000 000 000 000 -99 -99 -99 -99 -99 -99 -99 -99 000
000 000 000 -99 000 000 000 000 000 000 -99 -99 000 000 000 000 000 000 000 000 000 000 -99 -99 -99 -99 -99 -99 -99 -99 -99
000 000 000 000 000 000 000 000 000 -99 -99 -99 -99 000 000 -99 000 000 000 -99 -99 000 000 000 000 -99 -99 -99 -99 -99 -99
000 -99 000 000 000 000 000 000 000 -99 -99 -99 -99 000 000 -99 000 000 000 -99 -99 000 000 000 000 -99 -99 -99 -99 -99 -99
-99 000 000 000 000 000 000 000 -99 000 -99 -99 -99 000 000 000 000 000 000 000 000 000 000 000 000 000 000 000 000 -99 -99
000 000 000 000 000 000 000 000 -99 000 -99 -99 -99 000 000 -99 000 000 000 000 000 000 -99 000 000 000 000 000 000 000 000
000 000 000 000 000 000 000 000 000 000 000 -99 -99 000 000 000 000 000 000 000 000 -99 -99 000 -99 000 000 000 000 000 000
000 000 -99 -99 000 -99 -99 000 000 -99 000 -99 -99 000 000 000 000 000 000 000 000 -99 -99 -99 000 000 -99 000 000 000 000
000 000 -99 -99 000 000 -99 -99 -99 -99 -99 000 000 000 000 000 000 000 000 000 000 -99 -99 000 000 -99 -99 -99 -99 000 000
000 000 000 -99 000 000 -99 -99 -99 -99 -99 -99 000 000 000 000 000 000 000 000 000 -99 000 000 000 -99 -99 -99 -99 -99 -99
000 -99 000 000 000 -99 -99 -99 -99 -99 -99 000 000 000 000 000 000 000 000 -99 005 -99 000 000 000 -99 -99 -99 -99 -99 -99
000 000 000 000 000 -99 -99 -99 -99 -99 000 000 000 000 000 000 000 000 -99 003 000 -99 000 000 000 000 -99 -99 -99 -99 -99
000 000 -99 000 -99 -99 -99 -99 -99 -99 000 000 000 000 000 000 000 000 000 000 000 -99 000 000 000 -99 -99 -99 -99 -99 -99
000 -99 -99 -99 -99 -99 -99 -99 -99 000 000 000 000 000 000 000 000 000 000 000 000 -99 -99 -99 000 000 -99 -99 -99 -99 -99
000 -99 -99 -99 -99 -99 -99 -99 -99 -99 000 000 000 000 000 000 000 000 000 000 000 -99 -99 -99 000 000 -99 -99 -99 -99 -99
000 -99 -99 -99 -99 -99 -99 -99 -99 -99 000 000 000 000 000 -99 000 000 000 000 000 000 -99 000 000 -99 -99 -99 -99 -99 -99
000 -99 -99 -99 -99 -99 -99 -99 -99 -99 -99 000 000 -99 -99 -99 000 000 000 000 000 -99 -99 000 000 -99 -99 -99 -99 -99 -99
000 -99 -99 -99 -99 -99 -99 -99 -99 -99 000 000 000 000 -99 -99 -99 000 000 000 -99 -99 000 000 000 -99 -99 -99 -99 -99 -99
-99 -99 -99 -99 -99 -99 -99 -99 -99 -99 -99 000 -99 -99 -99 -99 -99 -99 -99 -99 -99 -99 000 000 -99 -99 -99 -99 -99 -99 -99
-99 -99 -99 -99 -99 -99 -99 -99 -99 -99 -99 -99 -99 -99 -99 -99 -99 000 000 -99 000 000 000 000 -99 -99 -99 000 -99 -99 -99
-99 -99 -99 -99 -99 -99 -99 -99 -99 -99 -99 -99 -99 -99 -99 -99 -99 000 000 -99 000 000 -99 -99 -99 -99 -99 000 000 -99 -99
-99 -99 -99 -99 -99 -99 -99 -99 -99 -99 -99 -99 -99 -99 -99 -99 -99 -99 -99 -99 -99 000 -99 -99 -99 -99 000 -99 -99 -99 -99
-99 -99 -99 -99 -99 -99 -99 -99 -99 -99 -99 -99 -99 -99 -99 -99 -99 -99 -99 -99 -99 -99 -99 -99 -99 -99 -99 -99 -99 -99 -99
-99 -99 -99 -99 -99 -99 -99 -99 -99 -99 -99 -99 -99 -99 -99 -99 -99 -99 -99 -99 -99 -99 -99 000 000 -99 -99 -99 -99 -99 -99
-99 -99 -99 -99 -99 -99 -99 -99 -99 -99 -99 -99 -99 -99 -99 -99 -99 -99 -99 -99 -99 -99 -99 000 000 -99 -99 -99 -99 -99 -99
-99 -99 -99 -99 -99 -99 -99 -99 -99 -99 -99 -99 -99 001 000 -99 -99 -99 -99 -99 -99 -99 -99 -99 -99 -99 -99 -99 -99 -99 -99
